5

    59    54    92    66    89
    38    81    57    46    63
    2    70    81    57    90
    6    25    100    21    10
    85    71    1    88    33

    0    60    65    61    16
    60    0    28    50    27
    65    28    0    6    14
    61    50    6    0    9
    16    27    14    9    0

    86    27    8    19    34
    100    84    11    36    63
    71    2    74    53    51
    78    16    69    93    16
    64    96    71    33    73
